22	3

8	10	10	

0	0	0	0	3	2	3	4	
1	3	5	2	3	6	7	8	
1	5	4	3	2	5	6	
2	5	2	2	2	5	6	
4	4	1	4	2	9	10	
5	5	5	4	2	9	10	
4	3	5	2	3	9	10	12	
2	2	4	4	2	9	11	
5	3	2	2	2	15	16	
5	3	2	4	1	13	
4	3	3	2	1	14	
1	4	1	4	1	13	
3	1	4	4	2	18	19	
4	2	2	2	1	18	
3	5	5	4	1	17	
2	1	5	4	1	17	
3	4	5	4	1	20	
2	3	2	3	1	20	
3	5	3	3	2	20	21	
4	2	4	6	1	22	
2	1	6	2	1	22	
0	0	0	0	0	
